
Gurobi 7.0.2 (linux64, Python) logging started Tue Apr 25 13:48:30 2017


Gurobi 7.0.2 (linux64, Python) logging started Tue Apr 25 13:48:42 2017


Gurobi 7.0.2 (linux64, Python) logging started Tue Apr 25 14:04:58 2017


Gurobi 7.0.2 (linux64, Python) logging started Tue Apr 25 15:37:06 2017


Gurobi 7.0.2 (linux64, Python) logging started Mon May  1 14:40:13 2017


Gurobi 7.0.2 (linux64, Python) logging started Mon May  8 13:03:50 2017


Gurobi 7.0.2 (linux64, Python) logging started Mon May  8 13:06:57 2017


Gurobi 7.0.2 (linux64, Python) logging started Mon May  8 13:07:06 2017


Gurobi 7.0.2 (linux64, Python) logging started Mon May  8 13:07:46 2017


Gurobi 7.0.2 (linux64, Python) logging started Mon May  8 14:46:05 2017


Gurobi 7.0.2 (linux64, Python) logging started Wed May 10 17:21:25 2017


Gurobi 7.0.2 (linux64, Python) logging started Wed May 10 17:53:08 2017


Gurobi 7.0.2 (linux64, Python) logging started Wed May 10 21:31:41 2017


Gurobi 7.0.2 (linux64, Python) logging started Wed May 10 21:31:54 2017


Gurobi 7.0.2 (linux64, Python) logging started Wed May 10 21:33:01 2017

